# Solution for model GasLib-40
# Objective value = 1.3336494477055080e+01
loadshed[innode_1] 0
loadshed[innode_2] 0
loadshed[innode_3] 0
loadshed[innode_4] 0
loadshed[innode_5] 0
loadshed[innode_6] 0
loadshed[innode_7] 0
loadshed[innode_8] 0
loadshed[source_1] -2.9919501002755378e-01
loadshed[source_2] 9.0495171829640508e-02
loadshed[source_3] 2.9305982961873578e-01
loadshed[sink_1] 0
loadshed[sink_2] 0
loadshed[sink_3] 0
loadshed[sink_4] 0
loadshed[sink_5] 0
loadshed[sink_6] 0
loadshed[sink_7] 0
loadshed[sink_8] 0
loadshed[sink_9] 0
loadshed[sink_10] 0
loadshed[sink_11] 0
loadshed[sink_12] 0.815479917068336
loadshed[sink_13] 0
loadshed[sink_14] 0
loadshed[sink_15] 0
loadshed[sink_16] 0
loadshed[sink_17] 0
loadshed[sink_18] 0
loadshed[sink_19] 0
loadshed[sink_20] 0
loadshed[sink_21] 0
loadshed[sink_22] 0
loadshed[sink_23] 0
loadshed[sink_24] 0
loadshed[sink_25] 0
loadshed[sink_26] 0
loadshed[sink_27] 0
loadshed[sink_28] 0
loadshed[sink_29] 0
flow[source_1,sink_3] 2.0539010002275876e+02
flow[innode_1,sink_16] 1.6354166666666970e+01
flow[innode_6,sink_13] 2.7187987588241898e+00
flow[sink_13,sink_14] -1.3635367907842479e+01
flow[sink_14,sink_10] -2.9989534574509207e+01
flow[sink_25,sink_26] 178.178833300637
flow[sink_26,sink_9] 1.5020517218961237e+02
flow[sink_9,sink_18] 1.3385100552294571e+02
flow[sink_26,sink_4] 1.1619494444357812e+01
flow[sink_4,sink_20] -1.6374123311080439e+01
flow[sink_18,sink_6] 1.1749683885627906e+02
flow[sink_25,innode_8] -1.7268176668942240e+02
flow[sink_6,sink_7] 6.8434338856278373e+01
flow[sink_6,sink_22] 3.2708333333333641e+01
flow[sink_7,sink_24] 3.5726005522944924e+01
flow[sink_22,sink_1] 1.6354166666666970e+01
flow[sink_24,sink_21] 1.9371838856278256e+01
flow[sink_21,sink_12] 3.0176721896115879e+00
flow[sink_7,sink_5] 1.6354166666667368e+01
flow[sink_5,sink_17] 0
flow[sink_17,sink_4] -1.1639451088771583e+01
flow[sink_17,sink_8] -4.7147155778950847e+00
flow[sink_3,sink_23] 16.3541666666697
flow[sink_8,sink_20] -2.1068882244561753e+01
flow[sink_25,sink_20] 5.3797172222308859e+01
flow[sink_25,sink_15] -78.3672042590143
flow[sink_15,sink_29] 0
flow[sink_29,sink_28] 1.6354166666667879e+01
flow[sink_29,sink_2] 1.1107553759234764e+02
flow[sink_2,sink_15] 9.4721370925680972e+01
flow[sink_29,innode_7] -1.4378387092568218e+02
flow[innode_4,sink_19] 4.3014399712147750e+01
flow[sink_19,innode_3] 0
flow[innode_4,innode_5] 6.8745968195695852e+01
flow[sink_27,innode_5] -6.8745968195695852e+01
flow[sink_27,sink_19] 5.2391801529029181e+01
flow[sink_10,sink_11] 3.2708333333333641e+01
flow[sink_10,innode_2] -7.9052034574509747e+01
flow[sink_10,innode_3] 0
flow[innode_6,sink_25] -2.7187987588241898e+00
flow[sink_11,innode_1] 1.6354166666666970e+01
flow[sink_19,innode_2] 7.9052034574509747e+01
flow[source_3,innode_4] 1.1176036790784360e+02
flow[source_2,innode_7] 1.4378387092568218e+02
flow[sink_3,innode_8] 1.7268176668942240e+02
pressure[innode_1] 7.4940699235883457e+01
pressure[innode_2] 7.9270627066345753e+01
pressure[innode_3] 75.092400543487
pressure[innode_4] 81.01325
pressure[innode_5] 8.0965962898088875e+01
pressure[innode_6] 7.3664524298654030e+01
pressure[innode_7] 81.01325
pressure[innode_8] 8.0326709357486052e+01
pressure[source_1] 81.01325
pressure[source_2] 81.01325
pressure[source_3] 81.01325
pressure[sink_1] 4.2043605117149127e+01
pressure[sink_2] 7.4353926001843632e+01
pressure[sink_3] 8.0326709357486052e+01
pressure[sink_4] 5.9638161111666392e+01
pressure[sink_5] 3.6403672350920068e+01
pressure[sink_6] 44.1446827275365
pressure[sink_7] 4.3205242377814784e+01
pressure[sink_8] 5.9371238138240969e+01
pressure[sink_9] 5.2125326483489928e+01
pressure[sink_10] 75.092400543487
pressure[sink_11] 7.4940699235883457e+01
pressure[sink_12] 1.01325
pressure[sink_13] 7.3649536015450110e+01
pressure[sink_14] 7.3673937667797716e+01
pressure[sink_15] 74.0446816020252
pressure[sink_16] 7.3919049401065777e+01
pressure[sink_17] 5.9193339670957108e+01
pressure[sink_18] 4.7282198159062460e+01
pressure[sink_19] 7.9270627066345753e+01
pressure[sink_20] 6.0839442933285376e+01
pressure[sink_21] 2.0871029229060660e+00
pressure[sink_22] 4.3107374259504134e+01
pressure[sink_23] 8.0161991345826266e+01
pressure[sink_24] 2.3016280396544970e+00
pressure[sink_25] 7.3664524298654030e+01
pressure[sink_26] 6.1115493707916151e+01
pressure[sink_27] 8.0395498390955154e+01
pressure[sink_28] 7.6872312451788034e+01
pressure[sink_29] 7.7167594725405209e+01
interdiction[source_1,sink_3] 0
interdiction[innode_1,sink_16] 0
interdiction[innode_6,sink_13] 0
interdiction[sink_13,sink_14] 0
interdiction[sink_14,sink_10] 0
interdiction[sink_25,sink_26] 0
interdiction[sink_26,sink_9] 0
interdiction[sink_9,sink_18] 0
interdiction[sink_26,sink_4] 0
interdiction[sink_4,sink_20] 0
interdiction[sink_18,sink_6] 0
interdiction[sink_25,innode_8] 0
interdiction[sink_6,sink_7] 0
interdiction[sink_6,sink_22] 0
interdiction[sink_7,sink_24] 0
interdiction[sink_22,sink_1] 0
interdiction[sink_24,sink_21] 0
interdiction[sink_21,sink_12] 0
interdiction[sink_7,sink_5] 0
interdiction[sink_5,sink_17] 1
interdiction[sink_17,sink_4] 0
interdiction[sink_17,sink_8] 0
interdiction[sink_3,sink_23] 0
interdiction[sink_8,sink_20] 0
interdiction[sink_25,sink_20] 0
interdiction[sink_25,sink_15] 0
interdiction[sink_15,sink_29] 1
interdiction[sink_29,sink_28] 0
interdiction[sink_29,sink_2] 0
interdiction[sink_2,sink_15] 0
interdiction[sink_29,innode_7] 0
interdiction[innode_4,sink_19] 0
interdiction[sink_19,innode_3] 1
interdiction[innode_4,innode_5] 0
interdiction[sink_27,innode_5] 0
interdiction[sink_27,sink_19] 0
interdiction[sink_10,sink_11] 0
interdiction[sink_10,innode_2] 0
interdiction[sink_10,innode_3] 0
interdiction[innode_6,sink_25] 0
interdiction[sink_11,innode_1] 0
interdiction[sink_19,innode_2] 0
interdiction[source_3,innode_4] 0
interdiction[source_2,innode_7] 0
interdiction[sink_3,innode_8] 0
WCcheckFlow[source_1,sink_3] 39
WCcheckFlow[innode_1,sink_16] 1
WCcheckFlow[innode_6,sink_13] 13
WCcheckFlow[sink_13,sink_14] 12
WCcheckFlow[sink_14,sink_10] 11
WCcheckFlow[sink_25,sink_26] 15
WCcheckFlow[sink_26,sink_9] 10
WCcheckFlow[sink_9,sink_18] 9
WCcheckFlow[sink_26,sink_4] 4
WCcheckFlow[sink_4,sink_20] 1
WCcheckFlow[sink_18,sink_6] 8
WCcheckFlow[sink_25,innode_8] -36
WCcheckFlow[sink_6,sink_7] 5
WCcheckFlow[sink_6,sink_22] 2
WCcheckFlow[sink_7,sink_24] 3
WCcheckFlow[sink_22,sink_1] 1
WCcheckFlow[sink_24,sink_21] 2
WCcheckFlow[sink_21,sink_12] 1
WCcheckFlow[sink_7,sink_5] 1
WCcheckFlow[sink_5,sink_17] 0
WCcheckFlow[sink_17,sink_4] -2
WCcheckFlow[sink_17,sink_8] 1
WCcheckFlow[sink_3,sink_23] 1
WCcheckFlow[sink_8,sink_20] 0
WCcheckFlow[sink_25,sink_20] 0
WCcheckFlow[sink_25,sink_15] 6
WCcheckFlow[sink_15,sink_29] 0
WCcheckFlow[sink_29,sink_28] 1
WCcheckFlow[sink_29,sink_2] -4
WCcheckFlow[sink_2,sink_15] -5
WCcheckFlow[sink_29,innode_7] 2
WCcheckFlow[innode_4,sink_19] -4
WCcheckFlow[sink_19,innode_3] 0
WCcheckFlow[innode_4,innode_5] 2
WCcheckFlow[sink_27,innode_5] -1
WCcheckFlow[sink_27,sink_19] 0
WCcheckFlow[sink_10,sink_11] 3
WCcheckFlow[sink_10,innode_2] 6
WCcheckFlow[sink_10,innode_3] 1
WCcheckFlow[innode_6,sink_25] -14
WCcheckFlow[sink_11,innode_1] 2
WCcheckFlow[sink_19,innode_2] -5
WCcheckFlow[source_3,innode_4] -1
WCcheckFlow[source_2,innode_7] -1
WCcheckFlow[sink_3,innode_8] 37
